4 4 1 1 111111
15 2 1 3 4 2 2 3 7 4 5 2 2 3 4 3 2 2 2 4 7 1 4 2 1 2 2 2 1 3 3 3 1 1 1 2 1 1 3 3 1 1 7 1 3 3 2 1 6 4 5 2 3 1 4 5 2 3 5 4 7 1 3 6 
15 2 2 3 4 1 2 2 7 3 1 1 1 7 1 3 6 1 3 4 1 1 4 2 1 4 2 6 2 1 4 3 3 2 2 2 3 4 2 1 5 3 7 1 3 1 1 2 7 2 1 1 4 6 2 3 2 4 5 2 1 1 4 3 
15 1 1 5 1 1 5 1 1 2 2 1 4 2 6 1 1 4 1 4 7 2 1 4 3 6 2 1 6 4 1 1 1 1 1 1 7 2 1 5 3 5 2 3 6 4 7 2 3 7 4 2 2 2 3 4 1 1 2 5 
15 2 1 5 4 5 2 1 1 2 5 2 2 4 3 2 1 3 5 2 2 2 3 2 1 3 7 2 3 2 4 2 2 2 6 3 3 2 3 5 4 2 2 1 7 4 4 2 3 1 4 4 2 1 5 4 1 2 1 4 4 4 2 2 4 4 4 1 1 4 
0 2 1 4 
1 0 1 2 
1 1 1 5 
0 2 5 7 
1 0 2 6 10 
2 2 3 1 9 
1 4 1 13 
1 3 1 11 
0 1 14 
1 5 1 12 
1 4 1 13 
1 7 1 12 
2 11 9 0 
2 10 6 0 
1 8 0 
0 2 16 26 
1 15 1 24 
0 1 18 
1 17 1 19 
1 18 2 21 25 
0 1 22 
1 19 1 23 
1 20 1 23 
2 21 22 2 28 29 
1 16 1 27 
1 19 1 28 
1 15 1 28 
1 24 0 
3 25 23 26 0 
1 23 0 
0 1 33 
0 1 34 
0 1 36 
1 30 1 35 
1 31 2 35 38 
2 33 34 1 40 
1 32 2 37 39 
1 36 1 42 
1 34 2 40 41 
1 36 1 43 
2 35 38 1 42 
1 38 1 42 
3 40 37 41 0 
1 39 1 44 
1 43 0 
0 1 55 
0 1 47 
1 46 2 48 49 
1 47 1 54 
1 47 2 50 51 
1 49 1 57 
1 49 1 58 
0 2 53 54 
1 52 1 57 
2 48 52 1 57 
1 45 1 56 
1 55 1 58 
3 54 53 50 1 59 
2 56 51 0 
1 57 0 
